p cnf 243 1548
1 -115 0
1 -116 0
115 -115 0
116 -116 0
20 -121 0
20 -122 0
121 -121 0
122 -122 0
39 -127 0
39 -128 0
127 -127 0
128 -128 0
58 -133 0
58 -134 0
133 -133 0
134 -134 0
77 -139 0
77 -140 0
139 -139 0
140 -140 0
96 -145 0
96 -146 0
145 -145 0
146 -146 0
2 -115 0
2 -116 0
115 -115 0
116 -116 0
21 -121 0
21 -122 0
121 -121 0
122 -122 0
40 -127 0
40 -128 0
127 -127 0
128 -128 0
59 -133 0
59 -134 0
133 -133 0
134 -134 0
78 -139 0
78 -140 0
139 -139 0
140 -140 0
97 -145 0
97 -146 0
145 -145 0
146 -146 0
3 -151 -115 0
-3 151 -115 0
3 151 -116 0
-3 -151 -116 0
22 -151 -121 0
-22 151 -121 0
22 151 -122 0
-22 -151 -122 0
41 -151 -127 0
-41 151 -127 0
41 151 -128 0
-41 -151 -128 0
60 -151 -133 0
-60 151 -133 0
60 151 -134 0
-60 -151 -134 0
79 -151 -139 0
-79 151 -139 0
79 151 -140 0
-79 -151 -140 0
98 -151 -145 0
-98 151 -145 0
98 151 -146 0
-98 -151 -146 0
4 -115 0
4 -116 0
115 -115 0
116 -116 0
23 -121 0
23 -122 0
121 -121 0
122 -122 0
42 -127 0
42 -128 0
127 -127 0
128 -128 0
61 -133 0
61 -134 0
133 -133 0
134 -134 0
80 -139 0
80 -140 0
139 -139 0
140 -140 0
99 -145 0
99 -146 0
145 -145 0
146 -146 0
5 -115 0
5 -116 0
115 -115 0
116 -116 0
24 -121 0
24 -122 0
121 -121 0
122 -122 0
43 -127 0
43 -128 0
127 -127 0
128 -128 0
62 -133 0
62 -134 0
133 -133 0
134 -134 0
81 -139 0
81 -140 0
139 -139 0
140 -140 0
100 -145 0
100 -146 0
145 -145 0
146 -146 0
6 -152 -115 0
-6 152 -115 0
6 152 -116 0
-6 -152 -116 0
25 -152 -121 0
-25 152 -121 0
25 152 -122 0
-25 -152 -122 0
44 -152 -127 0
-44 152 -127 0
44 152 -128 0
-44 -152 -128 0
63 -152 -133 0
-63 152 -133 0
63 152 -134 0
-63 -152 -134 0
82 -152 -139 0
-82 152 -139 0
82 152 -140 0
-82 -152 -140 0
101 -152 -145 0
-101 152 -145 0
101 152 -146 0
-101 -152 -146 0
7 -153 -115 0
-7 153 -115 0
7 153 -116 0
-7 -153 -116 0
26 -153 -121 0
-26 153 -121 0
26 153 -122 0
-26 -153 -122 0
45 -153 -127 0
-45 153 -127 0
45 153 -128 0
-45 -153 -128 0
64 -153 -133 0
-64 153 -133 0
64 153 -134 0
-64 -153 -134 0
83 -153 -139 0
-83 153 -139 0
83 153 -140 0
-83 -153 -140 0
102 -153 -145 0
-102 153 -145 0
102 153 -146 0
-102 -153 -146 0
-8 -115 0
-8 -116 0
115 -115 0
116 -116 0
-27 -121 0
-27 -122 0
121 -121 0
122 -122 0
-46 -127 0
-46 -128 0
127 -127 0
128 -128 0
-65 -133 0
-65 -134 0
133 -133 0
134 -134 0
-84 -139 0
-84 -140 0
139 -139 0
140 -140 0
-103 -145 0
-103 -146 0
145 -145 0
146 -146 0
-9 -115 0
-9 -116 0
115 -115 0
116 -116 0
-28 -121 0
-28 -122 0
121 -121 0
122 -122 0
-47 -127 0
-47 -128 0
127 -127 0
128 -128 0
-66 -133 0
-66 -134 0
133 -133 0
134 -134 0
-85 -139 0
-85 -140 0
139 -139 0
140 -140 0
-104 -145 0
-104 -146 0
145 -145 0
146 -146 0
10 -115 0
10 -116 0
115 -115 0
116 -116 0
29 -121 0
29 -122 0
121 -121 0
122 -122 0
48 -127 0
48 -128 0
127 -127 0
128 -128 0
67 -133 0
67 -134 0
133 -133 0
134 -134 0
86 -139 0
86 -140 0
139 -139 0
140 -140 0
105 -145 0
105 -146 0
145 -145 0
146 -146 0
11 -115 0
11 -116 0
115 -115 0
116 -116 0
30 -121 0
30 -122 0
121 -121 0
122 -122 0
49 -127 0
49 -128 0
127 -127 0
128 -128 0
68 -133 0
68 -134 0
133 -133 0
134 -134 0
87 -139 0
87 -140 0
139 -139 0
140 -140 0
106 -145 0
106 -146 0
145 -145 0
146 -146 0
12 -115 0
12 -116 0
115 -115 0
116 -116 0
31 -121 0
31 -122 0
121 -121 0
122 -122 0
50 -127 0
50 -128 0
127 -127 0
128 -128 0
69 -133 0
69 -134 0
133 -133 0
134 -134 0
88 -139 0
88 -140 0
139 -139 0
140 -140 0
107 -145 0
107 -146 0
145 -145 0
146 -146 0
13 -154 -115 0
-13 154 -115 0
13 154 -116 0
-13 -154 -116 0
32 -154 -121 0
-32 154 -121 0
32 154 -122 0
-32 -154 -122 0
51 -154 -127 0
-51 154 -127 0
51 154 -128 0
-51 -154 -128 0
70 -154 -133 0
-70 154 -133 0
70 154 -134 0
-70 -154 -134 0
89 -154 -139 0
-89 154 -139 0
89 154 -140 0
-89 -154 -140 0
108 -154 -145 0
-108 154 -145 0
108 154 -146 0
-108 -154 -146 0
14 -115 0
14 -116 0
115 -115 0
116 -116 0
33 -121 0
33 -122 0
121 -121 0
122 -122 0
52 -127 0
52 -128 0
127 -127 0
128 -128 0
71 -133 0
71 -134 0
133 -133 0
134 -134 0
90 -139 0
90 -140 0
139 -139 0
140 -140 0
109 -145 0
109 -146 0
145 -145 0
146 -146 0
15 -155 -115 0
-15 155 -115 0
15 155 -116 0
-15 -155 -116 0
34 -155 -121 0
-34 155 -121 0
34 155 -122 0
-34 -155 -122 0
53 -155 -127 0
-53 155 -127 0
53 155 -128 0
-53 -155 -128 0
72 -155 -133 0
-72 155 -133 0
72 155 -134 0
-72 -155 -134 0
91 -155 -139 0
-91 155 -139 0
91 155 -140 0
-91 -155 -140 0
110 -155 -145 0
-110 155 -145 0
110 155 -146 0
-110 -155 -146 0
16 -115 0
16 -116 0
115 -115 0
116 -116 0
35 -121 0
35 -122 0
121 -121 0
122 -122 0
54 -127 0
54 -128 0
127 -127 0
128 -128 0
73 -133 0
73 -134 0
133 -133 0
134 -134 0
92 -139 0
92 -140 0
139 -139 0
140 -140 0
111 -145 0
111 -146 0
145 -145 0
146 -146 0
17 -115 0
17 -116 0
115 -115 0
116 -116 0
36 -121 0
36 -122 0
121 -121 0
122 -122 0
55 -127 0
55 -128 0
127 -127 0
128 -128 0
74 -133 0
74 -134 0
133 -133 0
134 -134 0
93 -139 0
93 -140 0
139 -139 0
140 -140 0
112 -145 0
112 -146 0
145 -145 0
146 -146 0
18 -156 -115 0
-18 156 -115 0
18 156 -116 0
-18 -156 -116 0
37 -156 -121 0
-37 156 -121 0
37 156 -122 0
-37 -156 -122 0
56 -156 -127 0
-56 156 -127 0
56 156 -128 0
-56 -156 -128 0
75 -156 -133 0
-75 156 -133 0
75 156 -134 0
-75 -156 -134 0
94 -156 -139 0
-94 156 -139 0
94 156 -140 0
-94 -156 -140 0
113 -156 -145 0
-113 156 -145 0
113 156 -146 0
-113 -156 -146 0
19 -157 -115 0
-19 157 -115 0
19 157 -116 0
-19 -157 -116 0
38 -157 -121 0
-38 157 -121 0
38 157 -122 0
-38 -157 -122 0
57 -157 -127 0
-57 157 -127 0
57 157 -128 0
-57 -157 -128 0
76 -157 -133 0
-76 157 -133 0
76 157 -134 0
-76 -157 -134 0
95 -157 -139 0
-95 157 -139 0
95 157 -140 0
-95 -157 -140 0
114 -157 -145 0
-114 157 -145 0
114 157 -146 0
-114 -157 -146 0
-208 115 0
208 -115 0
-209 116 0
208 -116 0
-208 -115 0
-209 -116 0
-214 115 208 0
214 -115 0
214 -208 0
-215 116 209 0
215 -116 0
215 -209 0
-214 -121 0
-215 -122 0
-220 121 214 0
220 -121 0
220 -214 0
-221 122 215 0
221 -122 0
221 -215 0
-220 -127 0
-221 -128 0
-226 127 220 0
226 -127 0
226 -220 0
-227 128 221 0
227 -128 0
227 -221 0
-226 -133 0
-227 -134 0
-232 133 226 0
232 -133 0
232 -226 0
-233 134 227 0
233 -134 0
233 -227 0
-232 -139 0
-233 -140 0
-238 139 232 0
238 -139 0
238 -232 0
-239 140 233 0
239 -140 0
239 -233 0
-238 -145 0
-239 -146 0
238 0
239 0
1 -117 0
1 -118 0
117 -117 0
118 -118 0
20 -123 0
20 -124 0
123 -123 0
124 -124 0
39 -129 0
39 -130 0
129 -129 0
130 -130 0
58 -135 0
58 -136 0
135 -135 0
136 -136 0
77 -141 0
77 -142 0
141 -141 0
142 -142 0
96 -147 0
96 -148 0
147 -147 0
148 -148 0
2 -117 0
2 -118 0
117 -117 0
118 -118 0
21 -123 0
21 -124 0
123 -123 0
124 -124 0
40 -129 0
40 -130 0
129 -129 0
130 -130 0
59 -135 0
59 -136 0
135 -135 0
136 -136 0
78 -141 0
78 -142 0
141 -141 0
142 -142 0
97 -147 0
97 -148 0
147 -147 0
148 -148 0
3 -158 -117 0
-3 158 -117 0
3 158 -118 0
-3 -158 -118 0
22 -158 -123 0
-22 158 -123 0
22 158 -124 0
-22 -158 -124 0
41 -158 -129 0
-41 158 -129 0
41 158 -130 0
-41 -158 -130 0
60 -158 -135 0
-60 158 -135 0
60 158 -136 0
-60 -158 -136 0
79 -158 -141 0
-79 158 -141 0
79 158 -142 0
-79 -158 -142 0
98 -158 -147 0
-98 158 -147 0
98 158 -148 0
-98 -158 -148 0
4 -117 0
4 -118 0
117 -117 0
118 -118 0
23 -123 0
23 -124 0
123 -123 0
124 -124 0
42 -129 0
42 -130 0
129 -129 0
130 -130 0
61 -135 0
61 -136 0
135 -135 0
136 -136 0
80 -141 0
80 -142 0
141 -141 0
142 -142 0
99 -147 0
99 -148 0
147 -147 0
148 -148 0
5 -117 0
5 -118 0
117 -117 0
118 -118 0
24 -123 0
24 -124 0
123 -123 0
124 -124 0
43 -129 0
43 -130 0
129 -129 0
130 -130 0
62 -135 0
62 -136 0
135 -135 0
136 -136 0
81 -141 0
81 -142 0
141 -141 0
142 -142 0
100 -147 0
100 -148 0
147 -147 0
148 -148 0
6 -159 -117 0
-6 159 -117 0
6 159 -118 0
-6 -159 -118 0
25 -159 -123 0
-25 159 -123 0
25 159 -124 0
-25 -159 -124 0
44 -159 -129 0
-44 159 -129 0
44 159 -130 0
-44 -159 -130 0
63 -159 -135 0
-63 159 -135 0
63 159 -136 0
-63 -159 -136 0
82 -159 -141 0
-82 159 -141 0
82 159 -142 0
-82 -159 -142 0
101 -159 -147 0
-101 159 -147 0
101 159 -148 0
-101 -159 -148 0
7 -117 0
7 -118 0
117 -117 0
118 -118 0
26 -123 0
26 -124 0
123 -123 0
124 -124 0
45 -129 0
45 -130 0
129 -129 0
130 -130 0
64 -135 0
64 -136 0
135 -135 0
136 -136 0
83 -141 0
83 -142 0
141 -141 0
142 -142 0
102 -147 0
102 -148 0
147 -147 0
148 -148 0
-8 -117 0
-8 -118 0
117 -117 0
118 -118 0
-27 -123 0
-27 -124 0
123 -123 0
124 -124 0
-46 -129 0
-46 -130 0
129 -129 0
130 -130 0
-65 -135 0
-65 -136 0
135 -135 0
136 -136 0
-84 -141 0
-84 -142 0
141 -141 0
142 -142 0
-103 -147 0
-103 -148 0
147 -147 0
148 -148 0
-9 -117 0
-9 -118 0
117 -117 0
118 -118 0
-28 -123 0
-28 -124 0
123 -123 0
124 -124 0
-47 -129 0
-47 -130 0
129 -129 0
130 -130 0
-66 -135 0
-66 -136 0
135 -135 0
136 -136 0
-85 -141 0
-85 -142 0
141 -141 0
142 -142 0
-104 -147 0
-104 -148 0
147 -147 0
148 -148 0
10 -117 0
10 -118 0
117 -117 0
118 -118 0
29 -123 0
29 -124 0
123 -123 0
124 -124 0
48 -129 0
48 -130 0
129 -129 0
130 -130 0
67 -135 0
67 -136 0
135 -135 0
136 -136 0
86 -141 0
86 -142 0
141 -141 0
142 -142 0
105 -147 0
105 -148 0
147 -147 0
148 -148 0
11 -117 0
11 -118 0
117 -117 0
118 -118 0
30 -123 0
30 -124 0
123 -123 0
124 -124 0
49 -129 0
49 -130 0
129 -129 0
130 -130 0
68 -135 0
68 -136 0
135 -135 0
136 -136 0
87 -141 0
87 -142 0
141 -141 0
142 -142 0
106 -147 0
106 -148 0
147 -147 0
148 -148 0
12 -160 -117 0
-12 160 -117 0
12 160 -118 0
-12 -160 -118 0
31 -160 -123 0
-31 160 -123 0
31 160 -124 0
-31 -160 -124 0
50 -160 -129 0
-50 160 -129 0
50 160 -130 0
-50 -160 -130 0
69 -160 -135 0
-69 160 -135 0
69 160 -136 0
-69 -160 -136 0
88 -160 -141 0
-88 160 -141 0
88 160 -142 0
-88 -160 -142 0
107 -160 -147 0
-107 160 -147 0
107 160 -148 0
-107 -160 -148 0
13 -161 -117 0
-13 161 -117 0
13 161 -118 0
-13 -161 -118 0
32 -161 -123 0
-32 161 -123 0
32 161 -124 0
-32 -161 -124 0
51 -161 -129 0
-51 161 -129 0
51 161 -130 0
-51 -161 -130 0
70 -161 -135 0
-70 161 -135 0
70 161 -136 0
-70 -161 -136 0
89 -161 -141 0
-89 161 -141 0
89 161 -142 0
-89 -161 -142 0
108 -161 -147 0
-108 161 -147 0
108 161 -148 0
-108 -161 -148 0
14 -117 0
14 -118 0
117 -117 0
118 -118 0
33 -123 0
33 -124 0
123 -123 0
124 -124 0
52 -129 0
52 -130 0
129 -129 0
130 -130 0
71 -135 0
71 -136 0
135 -135 0
136 -136 0
90 -141 0
90 -142 0
141 -141 0
142 -142 0
109 -147 0
109 -148 0
147 -147 0
148 -148 0
15 -117 0
15 -118 0
117 -117 0
118 -118 0
34 -123 0
34 -124 0
123 -123 0
124 -124 0
53 -129 0
53 -130 0
129 -129 0
130 -130 0
72 -135 0
72 -136 0
135 -135 0
136 -136 0
91 -141 0
91 -142 0
141 -141 0
142 -142 0
110 -147 0
110 -148 0
147 -147 0
148 -148 0
16 -117 0
16 -118 0
117 -117 0
118 -118 0
35 -123 0
35 -124 0
123 -123 0
124 -124 0
54 -129 0
54 -130 0
129 -129 0
130 -130 0
73 -135 0
73 -136 0
135 -135 0
136 -136 0
92 -141 0
92 -142 0
141 -141 0
142 -142 0
111 -147 0
111 -148 0
147 -147 0
148 -148 0
17 -162 -117 0
-17 162 -117 0
17 162 -118 0
-17 -162 -118 0
36 -162 -123 0
-36 162 -123 0
36 162 -124 0
-36 -162 -124 0
55 -162 -129 0
-55 162 -129 0
55 162 -130 0
-55 -162 -130 0
74 -162 -135 0
-74 162 -135 0
74 162 -136 0
-74 -162 -136 0
93 -162 -141 0
-93 162 -141 0
93 162 -142 0
-93 -162 -142 0
112 -162 -147 0
-112 162 -147 0
112 162 -148 0
-112 -162 -148 0
18 -117 0
18 -118 0
117 -117 0
118 -118 0
37 -123 0
37 -124 0
123 -123 0
124 -124 0
56 -129 0
56 -130 0
129 -129 0
130 -130 0
75 -135 0
75 -136 0
135 -135 0
136 -136 0
94 -141 0
94 -142 0
141 -141 0
142 -142 0
113 -147 0
113 -148 0
147 -147 0
148 -148 0
19 -163 -117 0
-19 163 -117 0
19 163 -118 0
-19 -163 -118 0
38 -163 -123 0
-38 163 -123 0
38 163 -124 0
-38 -163 -124 0
57 -163 -129 0
-57 163 -129 0
57 163 -130 0
-57 -163 -130 0
76 -163 -135 0
-76 163 -135 0
76 163 -136 0
-76 -163 -136 0
95 -163 -141 0
-95 163 -141 0
95 163 -142 0
-95 -163 -142 0
114 -163 -147 0
-114 163 -147 0
114 163 -148 0
-114 -163 -148 0
-210 117 0
210 -117 0
-211 118 0
210 -118 0
-210 -117 0
-211 -118 0
-216 117 210 0
216 -117 0
216 -210 0
-217 118 211 0
217 -118 0
217 -211 0
-216 -123 0
-217 -124 0
-222 123 216 0
222 -123 0
222 -216 0
-223 124 217 0
223 -124 0
223 -217 0
-222 -129 0
-223 -130 0
-228 129 222 0
228 -129 0
228 -222 0
-229 130 223 0
229 -130 0
229 -223 0
-228 -135 0
-229 -136 0
-234 135 228 0
234 -135 0
234 -228 0
-235 136 229 0
235 -136 0
235 -229 0
-234 -141 0
-235 -142 0
-240 141 234 0
240 -141 0
240 -234 0
-241 142 235 0
241 -142 0
241 -235 0
-240 -147 0
-241 -148 0
240 0
241 0
1 -119 0
1 -120 0
119 -119 0
120 -120 0
20 -125 0
20 -126 0
125 -125 0
126 -126 0
39 -131 0
39 -132 0
131 -131 0
132 -132 0
58 -137 0
58 -138 0
137 -137 0
138 -138 0
77 -143 0
77 -144 0
143 -143 0
144 -144 0
96 -149 0
96 -150 0
149 -149 0
150 -150 0
2 -119 0
2 -120 0
119 -119 0
120 -120 0
21 -125 0
21 -126 0
125 -125 0
126 -126 0
40 -131 0
40 -132 0
131 -131 0
132 -132 0
59 -137 0
59 -138 0
137 -137 0
138 -138 0
78 -143 0
78 -144 0
143 -143 0
144 -144 0
97 -149 0
97 -150 0
149 -149 0
150 -150 0
3 -164 -119 0
-3 164 -119 0
3 164 -120 0
-3 -164 -120 0
22 -164 -125 0
-22 164 -125 0
22 164 -126 0
-22 -164 -126 0
41 -164 -131 0
-41 164 -131 0
41 164 -132 0
-41 -164 -132 0
60 -164 -137 0
-60 164 -137 0
60 164 -138 0
-60 -164 -138 0
79 -164 -143 0
-79 164 -143 0
79 164 -144 0
-79 -164 -144 0
98 -164 -149 0
-98 164 -149 0
98 164 -150 0
-98 -164 -150 0
4 -119 0
4 -120 0
119 -119 0
120 -120 0
23 -125 0
23 -126 0
125 -125 0
126 -126 0
42 -131 0
42 -132 0
131 -131 0
132 -132 0
61 -137 0
61 -138 0
137 -137 0
138 -138 0
80 -143 0
80 -144 0
143 -143 0
144 -144 0
99 -149 0
99 -150 0
149 -149 0
150 -150 0
5 -119 0
5 -120 0
119 -119 0
120 -120 0
24 -125 0
24 -126 0
125 -125 0
126 -126 0
43 -131 0
43 -132 0
131 -131 0
132 -132 0
62 -137 0
62 -138 0
137 -137 0
138 -138 0
81 -143 0
81 -144 0
143 -143 0
144 -144 0
100 -149 0
100 -150 0
149 -149 0
150 -150 0
6 -165 -119 0
-6 165 -119 0
6 165 -120 0
-6 -165 -120 0
25 -165 -125 0
-25 165 -125 0
25 165 -126 0
-25 -165 -126 0
44 -165 -131 0
-44 165 -131 0
44 165 -132 0
-44 -165 -132 0
63 -165 -137 0
-63 165 -137 0
63 165 -138 0
-63 -165 -138 0
82 -165 -143 0
-82 165 -143 0
82 165 -144 0
-82 -165 -144 0
101 -165 -149 0
-101 165 -149 0
101 165 -150 0
-101 -165 -150 0
7 -166 -119 0
-7 166 -119 0
7 166 -120 0
-7 -166 -120 0
26 -166 -125 0
-26 166 -125 0
26 166 -126 0
-26 -166 -126 0
45 -166 -131 0
-45 166 -131 0
45 166 -132 0
-45 -166 -132 0
64 -166 -137 0
-64 166 -137 0
64 166 -138 0
-64 -166 -138 0
83 -166 -143 0
-83 166 -143 0
83 166 -144 0
-83 -166 -144 0
102 -166 -149 0
-102 166 -149 0
102 166 -150 0
-102 -166 -150 0
-8 -119 0
-8 -120 0
119 -119 0
120 -120 0
-27 -125 0
-27 -126 0
125 -125 0
126 -126 0
-46 -131 0
-46 -132 0
131 -131 0
132 -132 0
-65 -137 0
-65 -138 0
137 -137 0
138 -138 0
-84 -143 0
-84 -144 0
143 -143 0
144 -144 0
-103 -149 0
-103 -150 0
149 -149 0
150 -150 0
-9 -119 0
-9 -120 0
119 -119 0
120 -120 0
-28 -125 0
-28 -126 0
125 -125 0
126 -126 0
-47 -131 0
-47 -132 0
131 -131 0
132 -132 0
-66 -137 0
-66 -138 0
137 -137 0
138 -138 0
-85 -143 0
-85 -144 0
143 -143 0
144 -144 0
-104 -149 0
-104 -150 0
149 -149 0
150 -150 0
10 -119 0
10 -120 0
119 -119 0
120 -120 0
29 -125 0
29 -126 0
125 -125 0
126 -126 0
48 -131 0
48 -132 0
131 -131 0
132 -132 0
67 -137 0
67 -138 0
137 -137 0
138 -138 0
86 -143 0
86 -144 0
143 -143 0
144 -144 0
105 -149 0
105 -150 0
149 -149 0
150 -150 0
11 -167 -119 0
-11 167 -119 0
11 167 -120 0
-11 -167 -120 0
30 -167 -125 0
-30 167 -125 0
30 167 -126 0
-30 -167 -126 0
49 -167 -131 0
-49 167 -131 0
49 167 -132 0
-49 -167 -132 0
68 -167 -137 0
-68 167 -137 0
68 167 -138 0
-68 -167 -138 0
87 -167 -143 0
-87 167 -143 0
87 167 -144 0
-87 -167 -144 0
106 -167 -149 0
-106 167 -149 0
106 167 -150 0
-106 -167 -150 0
12 -119 0
12 -120 0
119 -119 0
120 -120 0
31 -125 0
31 -126 0
125 -125 0
126 -126 0
50 -131 0
50 -132 0
131 -131 0
132 -132 0
69 -137 0
69 -138 0
137 -137 0
138 -138 0
88 -143 0
88 -144 0
143 -143 0
144 -144 0
107 -149 0
107 -150 0
149 -149 0
150 -150 0
13 -168 -119 0
-13 168 -119 0
13 168 -120 0
-13 -168 -120 0
32 -168 -125 0
-32 168 -125 0
32 168 -126 0
-32 -168 -126 0
51 -168 -131 0
-51 168 -131 0
51 168 -132 0
-51 -168 -132 0
70 -168 -137 0
-70 168 -137 0
70 168 -138 0
-70 -168 -138 0
89 -168 -143 0
-89 168 -143 0
89 168 -144 0
-89 -168 -144 0
108 -168 -149 0
-108 168 -149 0
108 168 -150 0
-108 -168 -150 0
14 -119 0
14 -120 0
119 -119 0
120 -120 0
33 -125 0
33 -126 0
125 -125 0
126 -126 0
52 -131 0
52 -132 0
131 -131 0
132 -132 0
71 -137 0
71 -138 0
137 -137 0
138 -138 0
90 -143 0
90 -144 0
143 -143 0
144 -144 0
109 -149 0
109 -150 0
149 -149 0
150 -150 0
15 -169 -119 0
-15 169 -119 0
15 169 -120 0
-15 -169 -120 0
34 -169 -125 0
-34 169 -125 0
34 169 -126 0
-34 -169 -126 0
53 -169 -131 0
-53 169 -131 0
53 169 -132 0
-53 -169 -132 0
72 -169 -137 0
-72 169 -137 0
72 169 -138 0
-72 -169 -138 0
91 -169 -143 0
-91 169 -143 0
91 169 -144 0
-91 -169 -144 0
110 -169 -149 0
-110 169 -149 0
110 169 -150 0
-110 -169 -150 0
16 -170 -119 0
-16 170 -119 0
16 170 -120 0
-16 -170 -120 0
35 -170 -125 0
-35 170 -125 0
35 170 -126 0
-35 -170 -126 0
54 -170 -131 0
-54 170 -131 0
54 170 -132 0
-54 -170 -132 0
73 -170 -137 0
-73 170 -137 0
73 170 -138 0
-73 -170 -138 0
92 -170 -143 0
-92 170 -143 0
92 170 -144 0
-92 -170 -144 0
111 -170 -149 0
-111 170 -149 0
111 170 -150 0
-111 -170 -150 0
17 -119 0
17 -120 0
119 -119 0
120 -120 0
36 -125 0
36 -126 0
125 -125 0
126 -126 0
55 -131 0
55 -132 0
131 -131 0
132 -132 0
74 -137 0
74 -138 0
137 -137 0
138 -138 0
93 -143 0
93 -144 0
143 -143 0
144 -144 0
112 -149 0
112 -150 0
149 -149 0
150 -150 0
18 -171 -119 0
-18 171 -119 0
18 171 -120 0
-18 -171 -120 0
37 -171 -125 0
-37 171 -125 0
37 171 -126 0
-37 -171 -126 0
56 -171 -131 0
-56 171 -131 0
56 171 -132 0
-56 -171 -132 0
75 -171 -137 0
-75 171 -137 0
75 171 -138 0
-75 -171 -138 0
94 -171 -143 0
-94 171 -143 0
94 171 -144 0
-94 -171 -144 0
113 -171 -149 0
-113 171 -149 0
113 171 -150 0
-113 -171 -150 0
19 -172 -119 0
-19 172 -119 0
19 172 -120 0
-19 -172 -120 0
38 -172 -125 0
-38 172 -125 0
38 172 -126 0
-38 -172 -126 0
57 -172 -131 0
-57 172 -131 0
57 172 -132 0
-57 -172 -132 0
76 -172 -137 0
-76 172 -137 0
76 172 -138 0
-76 -172 -138 0
95 -172 -143 0
-95 172 -143 0
95 172 -144 0
-95 -172 -144 0
114 -172 -149 0
-114 172 -149 0
114 172 -150 0
-114 -172 -150 0
-212 119 0
212 -119 0
-213 120 0
212 -120 0
-212 -119 0
-213 -120 0
-218 119 212 0
218 -119 0
218 -212 0
-219 120 213 0
219 -120 0
219 -213 0
-218 -125 0
-219 -126 0
-224 125 218 0
224 -125 0
224 -218 0
-225 126 219 0
225 -126 0
225 -219 0
-224 -131 0
-225 -132 0
-230 131 224 0
230 -131 0
230 -224 0
-231 132 225 0
231 -132 0
231 -225 0
-230 -137 0
-231 -138 0
-236 137 230 0
236 -137 0
236 -230 0
-237 138 231 0
237 -138 0
237 -231 0
-236 -143 0
-237 -144 0
-242 143 236 0
242 -143 0
242 -236 0
-243 144 237 0
243 -144 0
243 -237 0
-242 -149 0
-243 -150 0
242 0
243 0
-115 122 128 134 140 146 0
-116 0
-121 128 134 140 146 0
-122 115 0
-127 134 140 146 0
-128 115 121 0
-133 140 146 0
-134 115 121 127 0
-139 146 0
-140 115 121 127 133 0
-145 0
-146 115 121 127 133 139 0
-117 124 130 136 142 148 0
-118 0
-123 130 136 142 148 0
-124 117 0
-129 136 142 148 0
-130 117 123 0
-135 142 148 0
-136 117 123 129 0
-141 148 0
-142 117 123 129 135 0
-147 0
-148 117 123 129 135 141 0
-119 126 132 138 144 150 0
-120 0
-125 132 138 144 150 0
-126 119 0
-131 138 144 150 0
-132 119 125 0
-137 144 150 0
-138 119 125 131 0
-143 150 0
-144 119 125 131 137 0
-149 0
-150 119 125 131 137 143 0
